4 
5  14 29 44 
6  01 16 31 46 
7  01 17 32 47 
8  02 17 32 47 
9  02 17 32 47 
10  02 17 32 47 
11  02 17 32 47 
12  02 17 32 47 
13  02 17 32 47 
14  02 22 37 52 
15  07 22 37 52 
16  07 22 37 52 
17  07 22 40 57 
18  12 28 44 58 
19  13 28 43 58 
20  13 28 43 
21  
22 
